(set-info :smt-lib-version 2.6)
(set-logic QF_SLIA)
(set-info :source |
Generated by: Denghang Hu
Generated on: 2023-04-14
Application: Evaluate string solvers
Target solver: Ostrich, Z3str3, CVC5
Description: The instance consists of:
(1) a regular membership predicate from the real world
(2) a regular membership predicate to sanitize danger letters in javascript such as <,>,&,",'
(3) a lower bound for string length
|)
(set-info :license "https://creativecommons.org/licenses/by/4.0/")
(set-info :category "industrial")
(set-info :status unknown)
        ;test regex $search     = '#(.*?)(?:href="https?://)?(?:www\.)?(?:youtu\.be/|youtube\.com(?:/embed/|/v/|/watch?.*?v=))([\w\-]{10,12}).*#x';
(declare-const X String)
(assert (str.in_re X (re.++ (str.to_re "") (re.++ (str.to_re "s") (re.++ (str.to_re "e") (re.++ (str.to_re "a") (re.++ (str.to_re "r") (re.++ (str.to_re "c") (re.++ (str.to_re "h") (re.++ (str.to_re " ") (re.++ (str.to_re " ") (re.++ (str.to_re " ") (re.++ (str.to_re " ") (re.++ (str.to_re " ") (re.++ (str.to_re "=") (re.++ (str.to_re " ") (re.++ (str.to_re "\u{27}") (re.++ (str.to_re "#") (re.++ (re.* (re.diff re.allchar (str.to_re "\n"))) (re.++ (re.opt (re.++ (str.to_re "h") (re.++ (str.to_re "r") (re.++ (str.to_re "e") (re.++ (str.to_re "f") (re.++ (str.to_re "=") (re.++ (str.to_re "\u{22}") (re.++ (str.to_re "h") (re.++ (str.to_re "t") (re.++ (str.to_re "t") (re.++ (str.to_re "p") (re.++ (re.opt (str.to_re "s")) (re.++ (str.to_re ":") (re.++ (str.to_re "/") (str.to_re "/"))))))))))))))) (re.++ (re.opt (re.++ (str.to_re "w") (re.++ (str.to_re "w") (re.++ (str.to_re "w") (str.to_re "."))))) (re.++ (re.union (re.++ (str.to_re "y") (re.++ (str.to_re "o") (re.++ (str.to_re "u") (re.++ (str.to_re "t") (re.++ (str.to_re "u") (re.++ (str.to_re ".") (re.++ (str.to_re "b") (re.++ (str.to_re "e") (str.to_re "/"))))))))) (re.++ (str.to_re "y") (re.++ (str.to_re "o") (re.++ (str.to_re "u") (re.++ (str.to_re "t") (re.++ (str.to_re "u") (re.++ (str.to_re "b") (re.++ (str.to_re "e") (re.++ (str.to_re ".") (re.++ (str.to_re "c") (re.++ (str.to_re "o") (re.++ (str.to_re "m") (re.union (re.union (re.++ (str.to_re "/") (re.++ (str.to_re "e") (re.++ (str.to_re "m") (re.++ (str.to_re "b") (re.++ (str.to_re "e") (re.++ (str.to_re "d") (str.to_re "/"))))))) (re.++ (str.to_re "/") (re.++ (str.to_re "v") (str.to_re "/")))) (re.++ (str.to_re "/") (re.++ (str.to_re "w") (re.++ (str.to_re "a") (re.++ (str.to_re "t") (re.++ (str.to_re "c") (re.++ (re.opt (str.to_re "h")) (re.++ (re.* (re.diff re.allchar (str.to_re "\n"))) (re.++ (str.to_re "v") (str.to_re "=")))))))))))))))))))))) (re.++ ((_ re.loop 10 12) (re.union (re.union (re.range "a" "z") (re.union (re.range "A" "Z") (re.union (re.range "0" "9") (str.to_re "_")))) (str.to_re "-"))) (re.++ (re.* (re.diff re.allchar (str.to_re "\n"))) (re.++ (str.to_re "#") (re.++ (str.to_re "x") (re.++ (str.to_re "\u{27}") (str.to_re ";"))))))))))))))))))))))))))))
; sanitize danger characters:  < > ' " &
(assert (not (str.in_re X (re.++ re.all (re.union (str.to_re "\u{3c}") (str.to_re "\u{3e}") (str.to_re "\u{27}") (str.to_re "\u{22}") (str.to_re "\u{26}")) re.all))))
(assert (< 20 (str.len X)))
(check-sat)
(exit)
